 $CONTRL SCFTYP=ROHF RUNTYP=ENERGY DFTTYP=B3LYP AIMPAC=.TRUE. MAXIT=200 $END
 $BASIS GBASIS=N31 NGAUSS=6 NDFUNC=3 NPFUNC=3 NFFUNC=1 $END
 $DATA
template
Cnv      2

OXYGEN     8.0
HYDROGEN   1.0   0.0     0.7572157    0.5865358
 $END
